c Instancia generada aleatoriamente
p edge 30 214
e 1 3
e 1 4
e 1 5
e 1 6
e 1 8
e 1 9
e 1 10
e 1 11
e 1 12
e 1 14
e 1 16
e 1 19
e 1 22
e 1 23
e 1 24
e 1 25
e 1 27
e 2 3
e 2 8
e 2 11
e 2 12
e 2 14
e 2 16
e 2 18
e 2 23
e 2 25
e 2 26
e 2 28
e 3 4
e 3 6
e 3 9
e 3 11
e 3 12
e 3 15
e 3 17
e 3 19
e 3 21
e 3 22
e 3 25
e 3 27
e 4 7
e 4 8
e 4 11
e 4 13
e 4 16
e 4 21
e 4 22
e 4 26
e 4 30
e 5 9
e 5 12
e 5 18
e 5 20
e 5 21
e 5 23
e 5 25
e 5 28
e 5 29
e 5 30
e 6 7
e 6 8
e 6 9
e 6 12
e 6 13
e 6 14
e 6 15
e 6 16
e 6 19
e 6 20
e 6 21
e 6 22
e 6 25
e 6 26
e 6 28
e 6 30
e 7 9
e 7 11
e 7 12
e 7 16
e 7 17
e 7 18
e 7 19
e 7 20
e 7 21
e 7 23
e 7 24
e 7 26
e 7 27
e 7 28
e 7 30
e 8 9
e 8 10
e 8 11
e 8 13
e 8 16
e 8 17
e 8 18
e 8 21
e 8 26
e 8 27
e 8 28
e 8 30
e 9 11
e 9 14
e 9 15
e 9 17
e 9 19
e 9 23
e 9 24
e 9 26
e 9 28
e 9 29
e 10 11
e 10 14
e 10 17
e 10 18
e 10 21
e 10 24
e 10 26
e 10 27
e 10 29
e 11 15
e 11 16
e 11 18
e 11 20
e 11 23
e 11 24
e 11 25
e 11 26
e 11 27
e 11 29
e 12 13
e 12 14
e 12 15
e 12 16
e 12 23
e 12 24
e 12 25
e 12 26
e 12 28
e 12 29
e 12 30
e 13 16
e 13 17
e 13 18
e 13 22
e 13 25
e 13 27
e 13 28
e 13 30
e 14 15
e 14 20
e 14 23
e 14 24
e 14 25
e 14 26
e 14 28
e 14 29
e 14 30
e 15 19
e 15 24
e 15 26
e 15 29
e 16 18
e 16 19
e 16 20
e 16 23
e 16 24
e 16 25
e 16 27
e 17 18
e 17 24
e 17 27
e 17 28
e 17 29
e 17 30
e 18 24
e 18 25
e 18 26
e 18 28
e 19 20
e 19 24
e 19 28
e 19 30
e 20 21
e 20 22
e 20 24
e 20 25
e 20 28
e 20 30
e 21 22
e 21 23
e 21 25
e 21 26
e 21 28
e 21 30
e 22 25
e 23 24
e 23 26
e 23 27
e 23 28
e 23 29
e 23 30
e 24 27
e 24 30
e 25 26
e 25 27
e 25 28
e 25 29
e 26 27
e 26 28
e 26 30
e 28 29
e 28 30
